32      4       
10      10      10      10      
0       0       0       0       0       4       2       6       8       13      
10      1       1       1       0       1       3       
4       0       5       8       1       2       4       20      
4       0       1       3       1       2       5       30      
6       3       6       0       3       2       9       18      
2       4       0       6       6       1       7       
10      5       5       3       0       3       10      29      30      
5       5       1       0       3       3       10      29      30      
8       6       4       0       1       2       10      31      
7       4       0       3       8       2       11      28      
10      4       0       7       4       2       12      24      
8       5       0       8       7       2       14      27      
5       3       5       3       0       3       15      23      27      
10      4       3       0       5       2       15      23      
2       5       3       0       4       2       16      22      
4       0       3       5       2       2       17      26      
5       0       7       3       3       1       19      
10      4       6       0       3       2       26      29      
3       5       5       0       5       1       21      
5       4       0       3       4       1       21      
4       2       2       0       4       1       25      
9       2       0       4       7       1       26      
7       2       3       4       0       1       25      
3       4       0       4       2       1       27      
10      3       4       0       4       1       32      
5       6       0       4       4       1       32      
7       0       4       2       6       1       32      
9       0       7       5       4       1       32      
3       0       5       2       4       1       32      
1       6       4       0       4       1       32      
4       5       0       2       5       1       32      
0       0       0       0       0       0       
